20
2 0 2
3 0 3
4 1 6
4 3 2
5 0 2
5 1 6
5 3 5
5 4 5
6 0 2
6 2 6
6 4 3
7 0 1
7 5 3
8 0 5
8 3 3
8 5 2
8 6 6
9 1 4
9 3 6
10 0 3
10 1 1
10 5 3
10 6 4
10 8 1
11 0 2
11 2 6
11 3 1
11 6 1
11 7 2
11 8 1
12 4 5
12 5 1
12 6 4
12 7 2
12 9 3
13 3 2
13 5 6
13 8 3
13 11 4
13 12 5
14 0 2
14 3 6
14 4 6
14 5 2
14 6 1
14 7 3
14 8 1
14 9 5
14 11 2
14 13 5
15 1 3
15 2 1
15 3 1
15 7 3
15 8 6
15 9 1
15 13 6
16 0 3
16 1 2
16 4 1
16 5 3
16 6 5
16 7 6
16 8 3
16 11 5
17 2 1
17 4 3
17 5 2
17 6 6
17 7 6
17 8 2
17 9 5
17 11 4
17 12 3
17 15 4
18 0 1
18 6 6
18 8 4
18 10 3
18 11 6
18 12 2
18 13 2
18 17 5
19 2 3
19 5 4
19 7 5
19 9 6
19 11 6
19 13 2
19 14 3
19 16 3
19 17 6
19 18 1
